;symbolic execution tree
(push)
(assert (le x7 java.lang.String))
(check-sat)
(push)
(assert (le x3 java.util.Set))
(check-sat)
(pop)
(push)
(assert (not (le x3 java.util.Set)))
(check-sat)
(push)
(assert (le x2 siena.Notifiable))
(check-sat)
(pop)
(push)
(assert (not (le x2 siena.Notifiable)))
(check-sat)
(push)
(assert (le x9 siena.ByteBuf))
(check-sat)
(pop)
(push)
(assert (not (le x9 siena.ByteBuf)))
(check-sat)
(push)
(assert (le x6 siena.Tokenizer))
(check-sat)
(pop)
(push)
(assert (not (le x6 siena.Tokenizer)))
(check-sat)
(pop)
(pop)
(push)
(assert (le x1 siena.HierarchicalDispatcher))
(check-sat)
(pop)
(push)
(assert (not (le x1 siena.HierarchicalDispatcher)))
(check-sat)
(pop)
(push)
(assert (le x11 siena.HierarchicalDispatcher))
(check-sat)
(pop)
(push)
(assert (not (le x11 siena.HierarchicalDispatcher)))
(check-sat)
(pop)
(pop)
(push)
(assert (le x3 java.util.Set))
(check-sat)
(pop)
(push)
(assert (not (le x3 java.util.Set)))
(check-sat)
(push)
(assert (le x13 siena.Poset))
(check-sat)
(pop)
(push)
(assert (not (le x13 siena.Poset)))
(check-sat)
(pop)
(pop)
(push)
(assert (le x7 java.lang.String))
(check-sat)
(pop)
(push)
(assert (not (le x7 java.lang.String)))
(check-sat)
(pop)
(pop)
(pop)
(push)
(assert (not (le x7 java.lang.String)))
(check-sat)
(push)
(assert (le x10 siena.Tokenizer))
(check-sat)
(pop)
(push)
(assert (not (le x10 siena.Tokenizer)))
(check-sat)
(push)
(assert (le x8 siena.AttributeValue))
(check-sat)
(pop)
(push)
(assert (not (le x8 siena.AttributeValue)))
(check-sat)
(push)
(assert (le x15 java.lang.String))
(check-sat)
(pop)
(push)
(assert (not (le x15 java.lang.String)))
(check-sat)
(push)
(assert (le x6 java.lang.StringBuilder))
(check-sat)
(pop)
(push)
(assert (not (le x6 java.lang.StringBuilder)))
(check-sat)
(pop)
(push)
(assert (le x14 siena.AttributeValue))
(check-sat)
(pop)
(push)
(assert (not (le x14 siena.AttributeValue)))
(check-sat)
(pop)
(pop)
(pop)
(push)
(assert (le x11 siena.ByteBuf))
(check-sat)
(push)
(assert (le x11 siena.ByteBuf))
(check-sat)
(pop)
(push)
(assert (not (le x11 siena.ByteBuf)))
(check-sat)
(pop)
(push)
(assert (le x4 siena.ByteBuf))
(check-sat)
(pop)
(push)
(assert (not (le x4 siena.ByteBuf)))
(check-sat)
(pop)
(push)
(assert (le x10 siena.Tokenizer))
(check-sat)
(pop)
(push)
(assert (not (le x10 siena.Tokenizer)))
(check-sat)
(push)
(assert (le x2 java.lang.Integer))
(check-sat)
(pop)
(push)
(assert (not (le x2 java.lang.Integer)))
(check-sat)
(pop)
(pop)
(push)
(assert (le x1 siena.Tokenizer))
(check-sat)
(pop)
(push)
(assert (not (le x1 siena.Tokenizer)))
(check-sat)
(pop)
(pop)
(push)
(assert (not (le x11 siena.ByteBuf)))
(check-sat)
(pop)
(push)
(assert (le x4 java.util.Set))
(check-sat)
(push)
(assert (le x2 java.lang.String))
(check-sat)
(push)
(assert (le x11 java.lang.String))
(check-sat)
(pop)
(push)
(assert (not (le x11 java.lang.String)))
(check-sat)
(pop)
(pop)
(push)
(assert (not (le x2 java.lang.String)))
(check-sat)
(pop)
(pop)
(push)
(assert (not (le x4 java.util.Set)))
(check-sat)
(push)
(assert (le x15 siena.ByteBuf))
(check-sat)
(pop)
(push)
(assert (not (le x15 siena.ByteBuf)))
(check-sat)
(push)
(assert (le x15 siena.ByteBuf))
(check-sat)
(pop)
(push)
(assert (not (le x15 siena.ByteBuf)))
(check-sat)
(pop)
(pop)
(pop)
(pop)
(push)
(assert (le x10 java.lang.String))
(check-sat)
(push)
(assert (le x3 siena.Filter))
(check-sat)
(pop)
(push)
(assert (not (le x3 siena.Filter)))
(check-sat)
(push)
(assert (le x6 java.lang.StringBuilder))
(check-sat)
(pop)
(push)
(assert (not (le x6 java.lang.StringBuilder)))
(check-sat)
(push)
(assert (le x5 siena.Event))
(check-sat)
(pop)
(push)
(assert (not (le x5 siena.Event)))
(check-sat)
(pop)
(push)
(assert (le x2 siena.ByteBuf))
(check-sat)
(pop)
(push)
(assert (not (le x2 siena.ByteBuf)))
(check-sat)
(pop)
(pop)
(push)
(assert (le x15 siena.ByteBuf))
(check-sat)
(push)
(assert (le x5 java.lang.Thread))
(check-sat)
(pop)
(push)
(assert (not (le x5 java.lang.Thread)))
(check-sat)
(pop)
(pop)
(push)
(assert (not (le x15 siena.ByteBuf)))
(check-sat)
(pop)
(push)
(assert (le x3 siena.Filter))
(check-sat)
(pop)
(push)
(assert (not (le x3 siena.Filter)))
(check-sat)
(pop)
(push)
(assert (le x11 java.lang.StringBuilder))
(check-sat)
(pop)
(push)
(assert (not (le x11 java.lang.StringBuilder)))
(check-sat)
(pop)
(push)
(assert (le x7 java.lang.String))
(check-sat)
(pop)
(push)
(assert (not (le x7 java.lang.String)))
(check-sat)
(pop)
(push)
(assert (le x9 siena.ByteBuf))
(check-sat)
(pop)
(push)
(assert (not (le x9 siena.ByteBuf)))
(check-sat)
(pop)
(pop)
(pop)
(push)
(assert (not (le x10 java.lang.String)))
(check-sat)
(push)
(assert (le x11 java.lang.Byte))
(check-sat)
(push)
(assert (le x0 java.lang.StringBuilder))
(check-sat)
(pop)
(push)
(assert (not (le x0 java.lang.StringBuilder)))
(check-sat)
(pop)
(pop)
(push)
(assert (not (le x11 java.lang.Byte)))
(check-sat)
(pop)
(pop)
(push)
(assert (le x1 siena.AttributeConstraint))
(check-sat)
(pop)
(push)
(assert (not (le x1 siena.AttributeConstraint)))
(check-sat)
(push)
(assert (le x7 java.lang.String))
(check-sat)
(pop)
(push)
(assert (not (le x7 java.lang.String)))
(check-sat)
(pop)
(push)
(assert (le x12 java.lang.StringBuilder))
(check-sat)
(push)
(assert (le x13 java.lang.String))
(check-sat)
(push)
(assert (le x7 java.lang.String))
(check-sat)
(pop)
(push)
(assert (not (le x7 java.lang.String)))
(check-sat)
(pop)
(pop)
(push)
(assert (not (le x13 java.lang.String)))
(check-sat)
(pop)
(push)
(assert (le x2 siena.AttributeValue))
(check-sat)
(push)
(assert (le x5 java.lang.String))
(check-sat)
(pop)
(push)
(assert (not (le x5 java.lang.String)))
(check-sat)
(pop)
(pop)
(push)
(assert (not (le x2 siena.AttributeValue)))
(check-sat)
(pop)
(pop)
(push)
(assert (not (le x12 java.lang.StringBuilder)))
(check-sat)
(push)
(assert (le x9 siena.AttributeValue))
(check-sat)
(pop)
(push)
(assert (not (le x9 siena.AttributeValue)))
(check-sat)
(pop)
(pop)
(push)
(assert (le x4 java.net.InetAddress))
(check-sat)
(pop)
(push)
(assert (not (le x4 java.net.InetAddress)))
(check-sat)
(pop)
(push)
(assert (le x0 siena.AttributeConstraint))
(check-sat)
(pop)
(push)
(assert (not (le x0 siena.AttributeConstraint)))
(check-sat)
(push)
(assert (le x11 siena.Tokenizer))
(check-sat)
(pop)
(push)
(assert (not (le x11 siena.Tokenizer)))
(check-sat)
(pop)
(pop)
(push)
(assert (le x5 siena.AttributeConstraint))
(check-sat)
(push)
(assert (le x12 siena.ByteBuf))
(check-sat)
(pop)
(push)
(assert (not (le x12 siena.ByteBuf)))
(check-sat)
(pop)
(push)
(assert (le x8 siena.Notifiable))
(check-sat)
(pop)
(push)
(assert (not (le x8 siena.Notifiable)))
(check-sat)
(pop)
(push)
(assert (le x12 siena.AttributeConstraint))
(check-sat)
(pop)
(push)
(assert (not (le x12 siena.AttributeConstraint)))
(check-sat)
(push)
(assert (le x12 siena.AttributeConstraint))
(check-sat)
(pop)
(push)
(assert (not (le x12 siena.AttributeConstraint)))
(check-sat)
(pop)
(pop)
(pop)
(push)
(assert (not (le x5 siena.AttributeConstraint)))
(check-sat)
(pop)
(push)
(assert (le x14 java.lang.String))
(check-sat)
(pop)
(push)
(assert (not (le x14 java.lang.String)))
(check-sat)
(pop)
(push)
(assert (le x14 java.lang.String))
(check-sat)
(pop)
(push)
(assert (not (le x14 java.lang.String)))
(check-sat)
(pop)
(push)
(assert (le x3 siena.AttributeValue))
(check-sat)
(push)
(assert (le x4 java.lang.StringBuilder))
(check-sat)
(push)
(assert (le x11 siena.HierarchicalDispatcher))
(check-sat)
(pop)
(push)
(assert (not (le x11 siena.HierarchicalDispatcher)))
(check-sat)
(pop)
(pop)
(push)
(assert (not (le x4 java.lang.StringBuilder)))
(check-sat)
(push)
(assert (le x13 java.lang.Byte))
(check-sat)
(pop)
(push)
(assert (not (le x13 java.lang.Byte)))
(check-sat)
(pop)
(pop)
(pop)
(push)
(assert (not (le x3 siena.AttributeValue)))
(check-sat)
(push)
(assert (le x14 siena.Tokenizer))
(check-sat)
(push)
(assert (le x4 java.lang.String))
(check-sat)
(pop)
(push)
(assert (not (le x4 java.lang.String)))
(check-sat)
(pop)
(pop)
(push)
(assert (not (le x14 siena.Tokenizer)))
(check-sat)
(pop)
(pop)
(pop)
(push)
(assert (le x5 java.lang.String))
(check-sat)
(push)
(assert (le x11 siena.Filter))
(check-sat)
(pop)
(push)
(assert (not (le x11 siena.Filter)))
(check-sat)
(pop)
(pop)
(push)
(assert (not (le x5 java.lang.String)))
(check-sat)
(push)
(assert (le x8 siena.ByteBuf))
(check-sat)
(push)
(assert (le x10 siena.ByteBuf))
(check-sat)
(pop)
(push)
(assert (not (le x10 siena.ByteBuf)))
(check-sat)
(pop)
(pop)
(push)
(assert (not (le x8 siena.ByteBuf)))
(check-sat)
(push)
(assert (le x8 siena.ByteBuf))
(check-sat)
(pop)
(push)
(assert (not (le x8 siena.ByteBuf)))
(check-sat)
(pop)
(push)
(assert (le x15 java.lang.String))
(check-sat)
(push)
(assert (le x8 siena.ByteBuf))
(check-sat)
(pop)
(push)
(assert (not (le x8 siena.ByteBuf)))
(check-sat)
(pop)
(pop)
(push)
(assert (not (le x15 java.lang.String)))
(check-sat)
(pop)
(pop)
(push)
(assert (le x11 java.lang.StringBuilder))
(check-sat)
(push)
(assert (le x2 siena.Filter))
(check-sat)
(pop)
(push)
(assert (not (le x2 siena.Filter)))
(check-sat)
(pop)
(pop)
(push)
(assert (not (le x11 java.lang.StringBuilder)))
(check-sat)
(pop)
(push)
(assert (le x8 java.lang.String))
(check-sat)
(pop)
(push)
(assert (not (le x8 java.lang.String)))
(check-sat)
(pop)
(push)
(assert (le x15 java.lang.String))
(check-sat)
(pop)
(push)
(assert (not (le x15 java.lang.String)))
(check-sat)
(push)
(assert (le x3 siena.ByteBuf))
(check-sat)
(pop)
(push)
(assert (not (le x3 siena.ByteBuf)))
(check-sat)
(pop)
(push)
(assert (le x11 java.lang.String))
(check-sat)
(pop)
(push)
(assert (not (le x11 java.lang.String)))
(check-sat)
(pop)
(push)
(assert (le x6 java.lang.String))
(check-sat)
(pop)
(push)
(assert (not (le x6 java.lang.String)))
(check-sat)
(pop)
(push)
(assert (le x1 siena.ByteBuf))
(check-sat)
(push)
(assert (le x12 siena.Filter))
(check-sat)
(pop)
(push)
(assert (not (le x12 siena.Filter)))
(check-sat)
(pop)
(pop)
(push)
(assert (not (le x1 siena.ByteBuf)))
(check-sat)
(pop)
(push)
(assert (le x3 java.io.PrintStream))
(check-sat)
(pop)
(push)
(assert (not (le x3 java.io.PrintStream)))
(check-sat)
(push)
(assert (le x13 java.util.Set))
(check-sat)
(pop)
(push)
(assert (not (le x13 java.util.Set)))
(check-sat)
(pop)
(push)
(assert (le x5 java.lang.String))
(check-sat)
(pop)
(push)
(assert (not (le x5 java.lang.String)))
(check-sat)
(pop)
(pop)
(pop)
(pop)
(push)
(assert (le x2 siena.Tokenizer))
(check-sat)
(push)
(assert (le x15 java.lang.String))
(check-sat)
(push)
(assert (le x15 java.lang.String))
(check-sat)
(pop)
(push)
(assert (not (le x15 java.lang.String)))
(check-sat)
(pop)
(pop)
(push)
(assert (not (le x15 java.lang.String)))
(check-sat)
(push)
(assert (le x13 siena.Filter))
(check-sat)
(pop)
(push)
(assert (not (le x13 siena.Filter)))
(check-sat)
(pop)
(pop)
(pop)
(push)
(assert (not (le x2 siena.Tokenizer)))
(check-sat)
(pop)
(push)
(assert (le x8 siena.Tokenizer))
(check-sat)
(push)
(assert (le x7 java.lang.String))
(check-sat)
(pop)
(push)
(assert (not (le x7 java.lang.String)))
(check-sat)
(push)
(assert (le x9 siena.Tokenizer))
(check-sat)
(pop)
(push)
(assert (not (le x9 siena.Tokenizer)))
(check-sat)
(pop)
(pop)
(push)
(assert (le x2 java.lang.String))
(check-sat)
(pop)
(push)
(assert (not (le x2 java.lang.String)))
(check-sat)
(push)
(assert (le x7 java.lang.String))
(check-sat)
(pop)
(push)
(assert (not (le x7 java.lang.String)))
(check-sat)
(pop)
(pop)
(pop)
(push)
(assert (not (le x8 siena.Tokenizer)))
(check-sat)
(pop)
(pop)
